p cnf 42 87 
11 0
22 0
20 0
-27 0
38 0
6 0
2 0
-4 0
31 7 0
-31 -7 0
-31 -39 0
-31 -14 0
-7 -39 0
-7 -14 0
-39 -14 0
28 24 0
-28 -24 0
-28 -35 0
-28 -30 0
-24 -35 0
-24 -30 0
-35 -30 0
18 17 32 0
-18 -17 0
-18 -32 0
-18 -25 0
-17 -32 0
-17 -25 0
-32 -25 0
8 19 29 0
-8 -19 0
-8 -29 0
-8 -23 0
-19 -29 0
-19 -23 0
-29 -23 0
34 3 0
-34 -3 0
-33 0
-9 0
26 0
15 0
-41 0
5 0
-40 0
10 0
-32 -29 1 1 37 -38 0
-32 -29 1 1 -37 38 0
-32 -29 1 -1 37 -6 0
-32 -29 1 -1 -37 6 0
-32 -29 -1 1 37 -2 0
-32 -29 -1 1 -37 2 0
-32 -29 -1 -1 37 -4 0
-32 -29 -1 -1 -37 4 0
-32 -29 21 21 13 -38 0
-32 -29 21 21 -13 38 0
-32 -29 21 -21 13 -6 0
-32 -29 21 -21 -13 6 0
-32 -29 -21 21 13 -2 0
-32 -29 -21 21 -13 2 0
-32 -29 -21 -21 13 -4 0
-32 -29 -21 -21 -13 4 0
-32 -29 42 42 36 -38 0
-32 -29 42 42 -36 38 0
-32 -29 42 -42 36 -6 0
-32 -29 42 -42 -36 6 0
-32 -29 -42 42 36 -2 0
-32 -29 -42 42 -36 2 0
-32 -29 -42 -42 36 -4 0
-32 -29 -42 -42 -36 4 0
-32 -29 12 12 16 -38 0
-32 -29 12 12 -16 38 0
-32 -29 12 -12 16 -6 0
-32 -29 12 -12 -16 6 0
-32 -29 -12 12 16 -2 0
-32 -29 -12 12 -16 2 0
-32 -29 -12 -12 16 -4 0
-32 -29 -12 -12 -16 4 0
-34 1 0
-34 -21 0
-34 42 0
-34 -12 0
-3 37 0
-3 -13 0
-3 36 0
-3 -16 0
3 0
